p cnf 519 1872
1 0
2 0
3 0
4 0
5 0
6 0
-7 0
8 0
9 0
10 0
11 0
12 0
13 0
14 0
15 0
16 0
17 0
18 0
19 0
20 0
21 0
22 0
23 24 25 26 0
-23 -24 0
-23 -25 0
-23 -26 0
-24 -25 0
-24 -26 0
-25 -26 0
27 -1 -28 0
1 -27 -28 0
-27 -1 28 0
1 27 28 0
-23 -28 0
1 -29 -30 0
29 -1 -30 0
30 -1 -29 0
30 1 29 0
-24 30 0
-27 31 0
-29 31 0
27 29 -31 0
1 -31 -32 0
-1 31 -32 0
-1 -31 32 0
1 31 32 0
-25 32 0
27 33 0
29 33 0
-27 -29 -33 0
-1 33 -34 0
1 -33 -34 0
34 -33 -1 0
1 33 34 0
-26 -34 0
29 -35 -36 0
35 -29 -36 0
-29 -35 36 0
29 35 36 0
-23 -36 0
-27 35 -37 0
27 -35 -37 0
37 -35 -27 0
37 35 27 0
-24 37 0
35 -31 -38 0
-35 31 -38 0
-35 -31 38 0
35 31 38 0
-25 38 0
-35 33 -39 0
35 -33 -39 0
39 -33 -35 0
35 33 39 0
-26 -39 0
40 -2 -41 0
2 -40 -41 0
-40 -2 41 0
2 40 41 0
-23 -41 0
2 -42 -43 0
42 -2 -43 0
43 -2 -42 0
43 2 42 0
-24 43 0
-40 44 0
-42 44 0
-45 44 0
-46 44 0
-47 44 0
-48 44 0
-49 44 0
50 0
2 -44 -51 0
-2 44 -51 0
-2 -44 51 0
2 44 51 0
-25 51 0
40 52 0
42 52 0
45 52 0
46 52 0
47 52 0
48 52 0
49 52 0
-53 0
-2 52 -54 0
2 -52 -54 0
54 -52 -2 0
2 52 54 0
-26 -54 0
42 -55 -56 0
55 -42 -56 0
-42 -55 56 0
42 55 56 0
-23 -56 0
55 -45 -57 0
45 -55 -57 0
57 -55 -45 0
57 55 45 0
-24 57 0
-42 58 0
-45 58 0
-46 58 0
-47 58 0
-48 58 0
-49 58 0
42 45 46 47 48 49 -58 0
55 -58 -59 0
-55 58 -59 0
-55 -58 59 0
55 58 59 0
-25 59 0
42 60 0
45 60 0
46 60 0
47 60 0
48 60 0
49 60 0
-61 0
-55 60 -62 0
55 -60 -62 0
62 -60 -55 0
55 60 62 0
-26 -62 0
45 -63 -64 0
63 -45 -64 0
-45 -63 64 0
45 63 64 0
-23 -64 0
63 -46 -65 0
46 -63 -65 0
65 -63 -46 0
65 63 46 0
-24 65 0
-45 66 0
-46 66 0
-47 66 0
-48 66 0
-49 66 0
45 46 47 48 49 -66 0
63 -66 -67 0
-63 66 -67 0
-63 -66 67 0
63 66 67 0
-25 67 0
45 68 0
46 68 0
47 68 0
48 68 0
49 68 0
-69 0
-63 68 -70 0
63 -68 -70 0
70 -68 -63 0
63 68 70 0
-26 -70 0
46 -71 -72 0
71 -46 -72 0
-46 -71 72 0
46 71 72 0
-23 -72 0
71 -47 -73 0
47 -71 -73 0
73 -71 -47 0
73 71 47 0
-24 73 0
-46 74 0
-47 74 0
-48 74 0
-49 74 0
46 47 48 49 -74 0
71 -74 -75 0
-71 74 -75 0
-71 -74 75 0
71 74 75 0
-25 75 0
46 76 0
47 76 0
48 76 0
49 76 0
-77 0
-71 76 -78 0
71 -76 -78 0
78 -76 -71 0
71 76 78 0
-26 -78 0
47 -79 -80 0
79 -47 -80 0
-47 -79 80 0
47 79 80 0
-23 -80 0
79 -48 -81 0
48 -79 -81 0
81 -79 -48 0
81 79 48 0
-24 81 0
79 -74 -82 0
-79 74 -82 0
-79 -74 82 0
79 74 82 0
-25 82 0
-79 76 -83 0
79 -76 -83 0
83 -76 -79 0
79 76 83 0
-26 -83 0
48 -84 -85 0
84 -48 -85 0
-48 -84 85 0
48 84 85 0
-23 -85 0
84 -49 -86 0
49 -84 -86 0
86 -84 -49 0
86 84 49 0
-24 86 0
84 -74 -87 0
-84 74 -87 0
-84 -74 87 0
84 74 87 0
-25 87 0
-84 76 -88 0
84 -76 -88 0
88 -76 -84 0
84 76 88 0
-26 -88 0
49 -89 -90 0
89 -49 -90 0
-49 -89 90 0
49 89 90 0
-23 -90 0
-46 89 -91 0
46 -89 -91 0
91 -89 -46 0
91 89 46 0
-24 91 0
89 -74 -92 0
-89 74 -92 0
-89 -74 92 0
89 74 92 0
-25 92 0
-89 76 -93 0
89 -76 -93 0
93 -76 -89 0
89 76 93 0
-26 -93 0
94 -3 -95 0
3 -94 -95 0
-94 -3 95 0
3 94 95 0
-23 -95 0
3 -96 -97 0
96 -3 -97 0
97 -3 -96 0
97 3 96 0
-24 97 0
-94 98 0
-96 98 0
-99 98 0
-100 98 0
-101 98 0
-102 98 0
-103 98 0
104 0
3 -98 -105 0
-3 98 -105 0
-3 -98 105 0
3 98 105 0
-25 105 0
94 106 0
96 106 0
99 106 0
100 106 0
101 106 0
102 106 0
103 106 0
-107 0
-3 106 -108 0
3 -106 -108 0
108 -106 -3 0
3 106 108 0
-26 -108 0
96 -109 -110 0
109 -96 -110 0
-96 -109 110 0
96 109 110 0
-23 -110 0
109 -99 -111 0
99 -109 -111 0
111 -109 -99 0
111 109 99 0
-24 111 0
-96 112 0
-99 112 0
-100 112 0
-101 112 0
-102 112 0
-103 112 0
113 0
109 -112 -114 0
-109 112 -114 0
-109 -112 114 0
109 112 114 0
-25 114 0
96 115 0
99 115 0
100 115 0
101 115 0
102 115 0
103 115 0
-116 0
-109 115 -117 0
109 -115 -117 0
117 -115 -109 0
109 115 117 0
-26 -117 0
99 -4 -118 0
4 -99 -118 0
-99 -4 118 0
99 4 118 0
-23 -118 0
4 -100 -119 0
100 -4 -119 0
119 -4 -100 0
119 4 100 0
-24 119 0
-99 120 0
-100 120 0
-101 120 0
-102 120 0
-103 120 0
99 100 101 102 103 -120 0
4 -120 -121 0
-4 120 -121 0
-4 -120 121 0
4 120 121 0
-25 121 0
99 122 0
100 122 0
101 122 0
102 122 0
103 122 0
-123 0
-4 122 -124 0
4 -122 -124 0
124 -122 -4 0
4 122 124 0
-26 -124 0
100 -125 -126 0
125 -100 -126 0
-100 -125 126 0
100 125 126 0
-23 -126 0
125 -101 -127 0
101 -125 -127 0
127 -125 -101 0
127 125 101 0
-24 127 0
-100 128 0
-101 128 0
-102 128 0
-103 128 0
100 101 102 103 -128 0
125 -128 -129 0
-125 128 -129 0
-125 -128 129 0
125 128 129 0
-25 129 0
100 130 0
101 130 0
102 130 0
103 130 0
-131 0
-125 130 -132 0
125 -130 -132 0
132 -130 -125 0
125 130 132 0
-26 -132 0
101 -133 -134 0
133 -101 -134 0
-101 -133 134 0
101 133 134 0
-23 -134 0
133 -102 -135 0
102 -133 -135 0
135 -133 -102 0
135 133 102 0
-24 135 0
133 -128 -136 0
-133 128 -136 0
-133 -128 136 0
133 128 136 0
-25 136 0
-133 130 -137 0
133 -130 -137 0
137 -130 -133 0
133 130 137 0
-26 -137 0
102 -138 -139 0
138 -102 -139 0
-102 -138 139 0
102 138 139 0
-23 -139 0
138 -103 -140 0
103 -138 -140 0
140 -138 -103 0
140 138 103 0
-24 140 0
138 -128 -141 0
-138 128 -141 0
-138 -128 141 0
138 128 141 0
-25 141 0
-138 130 -142 0
138 -130 -142 0
142 -130 -138 0
138 130 142 0
-26 -142 0
103 -143 -144 0
143 -103 -144 0
-103 -143 144 0
103 143 144 0
-23 -144 0
-100 143 -145 0
100 -143 -145 0
145 -143 -100 0
145 143 100 0
-24 145 0
143 -128 -146 0
-143 128 -146 0
-143 -128 146 0
143 128 146 0
-25 146 0
-143 130 -147 0
143 -130 -147 0
147 -130 -143 0
143 130 147 0
-26 -147 0
148 -5 -149 0
5 -148 -149 0
-148 -5 149 0
5 148 149 0
-23 -149 0
5 -150 -151 0
150 -5 -151 0
151 -5 -150 0
151 5 150 0
-24 151 0
-148 152 0
-150 152 0
-153 152 0
148 150 153 -152 0
5 -152 -154 0
-5 152 -154 0
-5 -152 154 0
5 152 154 0
-25 154 0
148 155 0
150 155 0
153 155 0
-148 -150 -153 -155 0
-5 155 -156 0
5 -155 -156 0
156 -155 -5 0
5 155 156 0
-26 -156 0
150 -6 -157 0
6 -150 -157 0
-150 -6 157 0
150 6 157 0
-23 -157 0
6 -153 -158 0
153 -6 -158 0
158 -6 -153 0
158 6 153 0
-24 158 0
-150 159 0
-153 159 0
150 153 -159 0
6 -159 -160 0
-6 159 -160 0
-6 -159 160 0
6 159 160 0
-25 160 0
150 161 0
153 161 0
-150 -153 -161 0
-6 161 -162 0
6 -161 -162 0
162 -161 -6 0
6 161 162 0
-26 -162 0
153 -7 -163 0
7 -153 -163 0
-153 -7 163 0
153 7 163 0
-23 -163 0
7 -153 -164 0
153 -7 -164 0
164 -7 -153 0
164 7 153 0
-24 164 0
-25 164 0
-26 164 0
165 -8 -166 0
8 -165 -166 0
-165 -8 166 0
8 165 166 0
-23 -166 0
8 -167 -168 0
167 -8 -168 0
168 -8 -167 0
168 8 167 0
-24 168 0
-165 169 0
-167 169 0
-170 169 0
-171 169 0
-172 169 0
165 167 170 171 172 -169 0
8 -169 -173 0
-8 169 -173 0
-8 -169 173 0
8 169 173 0
-25 173 0
165 174 0
167 174 0
170 174 0
171 174 0
172 174 0
-175 0
-8 174 -176 0
8 -174 -176 0
176 -174 -8 0
8 174 176 0
-26 -176 0
167 -177 -178 0
177 -167 -178 0
-167 -177 178 0
167 177 178 0
-23 -178 0
177 -170 -179 0
170 -177 -179 0
179 -177 -170 0
179 177 170 0
-24 179 0
-167 180 0
-170 180 0
-171 180 0
-172 180 0
167 170 171 172 -180 0
177 -180 -181 0
-177 180 -181 0
-177 -180 181 0
177 180 181 0
-25 181 0
167 182 0
170 182 0
171 182 0
172 182 0
-183 0
-177 182 -184 0
177 -182 -184 0
184 -182 -177 0
177 182 184 0
-26 -184 0
170 -185 -186 0
185 -170 -186 0
-170 -185 186 0
170 185 186 0
-23 -186 0
185 -171 -187 0
171 -185 -187 0
187 -185 -171 0
187 185 171 0
-24 187 0
-170 188 0
-171 188 0
-172 188 0
170 171 172 -188 0
185 -188 -189 0
-185 188 -189 0
-185 -188 189 0
185 188 189 0
-25 189 0
170 190 0
171 190 0
172 190 0
-170 -171 -172 -190 0
-185 190 -191 0
185 -190 -191 0
191 -190 -185 0
185 190 191 0
-26 -191 0
171 -192 -193 0
192 -171 -193 0
-171 -192 193 0
171 192 193 0
-23 -193 0
192 -172 -194 0
172 -192 -194 0
194 -192 -172 0
194 192 172 0
-24 194 0
192 -188 -195 0
-192 188 -195 0
-192 -188 195 0
192 188 195 0
-25 195 0
-192 190 -196 0
192 -190 -196 0
196 -190 -192 0
192 190 196 0
-26 -196 0
172 -197 -198 0
197 -172 -198 0
-172 -197 198 0
172 197 198 0
-23 -198 0
-170 197 -199 0
170 -197 -199 0
199 -197 -170 0
199 197 170 0
-24 199 0
197 -188 -200 0
-197 188 -200 0
-197 -188 200 0
197 188 200 0
-25 200 0
-197 190 -201 0
197 -190 -201 0
201 -190 -197 0
197 190 201 0
-26 -201 0
202 -9 -203 0
9 -202 -203 0
-202 -9 203 0
9 202 203 0
-23 -203 0
9 -204 -205 0
204 -9 -205 0
205 -9 -204 0
205 9 204 0
-24 205 0
-27 206 0
-29 206 0
-202 206 0
-204 206 0
-207 206 0
-208 206 0
27 29 202 204 207 208 -206 0
9 -206 -209 0
-9 206 -209 0
-9 -206 209 0
9 206 209 0
-25 209 0
27 210 0
29 210 0
202 210 0
204 210 0
207 210 0
208 210 0
-211 0
-9 210 -212 0
9 -210 -212 0
212 -210 -9 0
9 210 212 0
-26 -212 0
204 -213 -214 0
213 -204 -214 0
-204 -213 214 0
204 213 214 0
-23 -214 0
213 -207 -215 0
207 -213 -215 0
215 -213 -207 0
215 213 207 0
-24 215 0
-27 216 0
-29 216 0
-204 216 0
-207 216 0
-208 216 0
27 29 204 207 208 -216 0
213 -216 -217 0
-213 216 -217 0
-213 -216 217 0
213 216 217 0
-25 217 0
27 218 0
29 218 0
204 218 0
207 218 0
208 218 0
-219 0
-213 218 -220 0
213 -218 -220 0
220 -218 -213 0
213 218 220 0
-26 -220 0
207 -221 -222 0
221 -207 -222 0
-207 -221 222 0
207 221 222 0
-23 -222 0
221 -208 -223 0
208 -221 -223 0
223 -221 -208 0
223 221 208 0
-24 223 0
-27 224 0
-29 224 0
-207 224 0
-208 224 0
27 29 207 208 -224 0
221 -224 -225 0
-221 224 -225 0
-221 -224 225 0
221 224 225 0
-25 225 0
27 226 0
29 226 0
207 226 0
208 226 0
-227 0
-221 226 -228 0
221 -226 -228 0
228 -226 -221 0
221 226 228 0
-26 -228 0
208 -10 -229 0
10 -208 -229 0
-208 -10 229 0
208 10 229 0
-23 -229 0
-27 10 -230 0
27 -10 -230 0
230 -10 -27 0
230 10 27 0
-24 230 0
-27 231 0
-29 231 0
-208 231 0
27 29 208 -231 0
10 -231 -232 0
-10 231 -232 0
-10 -231 232 0
10 231 232 0
-25 232 0
27 233 0
29 233 0
208 233 0
-27 -29 -208 -233 0
-10 233 -234 0
10 -233 -234 0
234 -233 -10 0
10 233 234 0
-26 -234 0
235 -11 -236 0
11 -235 -236 0
-235 -11 236 0
11 235 236 0
-23 -236 0
11 -237 -238 0
237 -11 -238 0
238 -11 -237 0
238 11 237 0
-24 238 0
-170 239 0
-171 239 0
-172 239 0
-235 239 0
-237 239 0
-240 239 0
-241 239 0
242 0
11 -239 -243 0
-11 239 -243 0
-11 -239 243 0
11 239 243 0
-25 243 0
170 244 0
171 244 0
172 244 0
235 244 0
237 244 0
240 244 0
241 244 0
-245 0
-11 244 -246 0
11 -244 -246 0
246 -244 -11 0
11 244 246 0
-26 -246 0
237 -247 -248 0
247 -237 -248 0
-237 -247 248 0
237 247 248 0
-23 -248 0
247 -240 -249 0
240 -247 -249 0
249 -247 -240 0
249 247 240 0
-24 249 0
-170 250 0
-171 250 0
-172 250 0
-237 250 0
-240 250 0
-241 250 0
251 0
247 -250 -252 0
-247 250 -252 0
-247 -250 252 0
247 250 252 0
-25 252 0
170 253 0
171 253 0
172 253 0
237 253 0
240 253 0
241 253 0
-254 0
-247 253 -255 0
247 -253 -255 0
255 -253 -247 0
247 253 255 0
-26 -255 0
240 -256 -257 0
256 -240 -257 0
-240 -256 257 0
240 256 257 0
-23 -257 0
256 -241 -258 0
241 -256 -258 0
258 -256 -241 0
258 256 241 0
-24 258 0
-170 259 0
-171 259 0
-172 259 0
-240 259 0
-241 259 0
170 171 172 240 241 -259 0
256 -259 -260 0
-256 259 -260 0
-256 -259 260 0
256 259 260 0
-25 260 0
170 261 0
171 261 0
172 261 0
240 261 0
241 261 0
-262 0
-256 261 -263 0
256 -261 -263 0
263 -261 -256 0
256 261 263 0
-26 -263 0
241 -264 -265 0
264 -241 -265 0
-241 -264 265 0
241 264 265 0
-23 -265 0
-172 264 -266 0
172 -264 -266 0
266 -264 -172 0
266 264 172 0
-24 266 0
-170 267 0
-171 267 0
-172 267 0
-241 267 0
170 171 172 241 -267 0
264 -267 -268 0
-264 267 -268 0
-264 -267 268 0
264 267 268 0
-25 268 0
170 269 0
171 269 0
172 269 0
241 269 0
-270 0
-264 269 -271 0
264 -269 -271 0
271 -269 -264 0
264 269 271 0
-26 -271 0
272 -12 -273 0
12 -272 -273 0
-272 -12 273 0
12 272 273 0
-23 -273 0
12 -274 -275 0
274 -12 -275 0
275 -12 -274 0
275 12 274 0
-24 275 0
-27 276 0
-29 276 0
-272 276 0
-274 276 0
-277 276 0
27 29 272 274 277 -276 0
12 -276 -278 0
-12 276 -278 0
-12 -276 278 0
12 276 278 0
-25 278 0
27 279 0
29 279 0
272 279 0
274 279 0
277 279 0
-280 0
-12 279 -281 0
12 -279 -281 0
281 -279 -12 0
12 279 281 0
-26 -281 0
274 -282 -283 0
282 -274 -283 0
-274 -282 283 0
274 282 283 0
-23 -283 0
282 -277 -284 0
277 -282 -284 0
284 -282 -277 0
284 282 277 0
-24 284 0
-27 285 0
-29 285 0
-274 285 0
-277 285 0
27 29 274 277 -285 0
282 -285 -286 0
-282 285 -286 0
-282 -285 286 0
282 285 286 0
-25 286 0
27 287 0
29 287 0
274 287 0
277 287 0
-288 0
-282 287 -289 0
282 -287 -289 0
289 -287 -282 0
282 287 289 0
-26 -289 0
277 -290 -291 0
290 -277 -291 0
-277 -290 291 0
277 290 291 0
-23 -291 0
-29 290 -292 0
29 -290 -292 0
292 -290 -29 0
292 290 29 0
-24 292 0
-27 293 0
-29 293 0
-277 293 0
27 29 277 -293 0
290 -293 -294 0
-290 293 -294 0
-290 -293 294 0
290 293 294 0
-25 294 0
27 295 0
29 295 0
277 295 0
-27 -29 -277 -295 0
-290 295 -296 0
290 -295 -296 0
296 -295 -290 0
290 295 296 0
-26 -296 0
297 -13 -298 0
13 -297 -298 0
-297 -13 298 0
13 297 298 0
-23 -298 0
13 -299 -300 0
299 -13 -300 0
300 -13 -299 0
300 13 299 0
-24 300 0
-297 301 0
-299 301 0
-302 301 0
297 299 302 -301 0
13 -301 -303 0
-13 301 -303 0
-13 -301 303 0
13 301 303 0
-25 303 0
297 304 0
299 304 0
302 304 0
-297 -299 -302 -304 0
-13 304 -305 0
13 -304 -305 0
305 -304 -13 0
13 304 305 0
-26 -305 0
299 -306 -307 0
306 -299 -307 0
-299 -306 307 0
299 306 307 0
-23 -307 0
306 -302 -308 0
302 -306 -308 0
308 -306 -302 0
308 306 302 0
-24 308 0
-299 309 0
-302 309 0
299 302 -309 0
306 -309 -310 0
-306 309 -310 0
-306 -309 310 0
306 309 310 0
-25 310 0
299 311 0
302 311 0
-299 -302 -311 0
-306 311 -312 0
306 -311 -312 0
312 -311 -306 0
306 311 312 0
-26 -312 0
302 -313 -314 0
313 -302 -314 0
-302 -313 314 0
302 313 314 0
-23 -314 0
313 -302 -315 0
302 -313 -315 0
315 -313 -302 0
315 313 302 0
-24 315 0
-25 315 0
-26 315 0
316 -14 -317 0
14 -316 -317 0
-316 -14 317 0
14 316 317 0
-23 -317 0
14 -318 -319 0
318 -14 -319 0
319 -14 -318 0
319 14 318 0
-24 319 0
-100 320 0
-101 320 0
-102 320 0
-103 320 0
-316 320 0
-318 320 0
321 0
14 -320 -322 0
-14 320 -322 0
-14 -320 322 0
14 320 322 0
-25 322 0
100 323 0
101 323 0
102 323 0
103 323 0
316 323 0
318 323 0
-324 0
-14 323 -325 0
14 -323 -325 0
325 -323 -14 0
14 323 325 0
-26 -325 0
318 -326 -327 0
326 -318 -327 0
-318 -326 327 0
318 326 327 0
-23 -327 0
-103 326 -328 0
103 -326 -328 0
328 -326 -103 0
328 326 103 0
-24 328 0
-100 329 0
-101 329 0
-102 329 0
-103 329 0
-318 329 0
100 101 102 103 318 -329 0
326 -329 -330 0
-326 329 -330 0
-326 -329 330 0
326 329 330 0
-25 330 0
100 331 0
101 331 0
102 331 0
103 331 0
318 331 0
-332 0
-326 331 -333 0
326 -331 -333 0
333 -331 -326 0
326 331 333 0
-26 -333 0
334 -15 -335 0
15 -334 -335 0
-334 -15 335 0
15 334 335 0
-23 -335 0
15 -336 -337 0
336 -15 -337 0
337 -15 -336 0
337 15 336 0
-24 337 0
-100 338 0
-101 338 0
-102 338 0
-103 338 0
-318 338 0
-334 338 0
-336 338 0
339 0
15 -338 -340 0
-15 338 -340 0
-15 -338 340 0
15 338 340 0
-25 340 0
100 341 0
101 341 0
102 341 0
103 341 0
318 341 0
334 341 0
336 341 0
-342 0
-15 341 -343 0
15 -341 -343 0
343 -341 -15 0
15 341 343 0
-26 -343 0
336 -344 -345 0
344 -336 -345 0
-336 -344 345 0
336 344 345 0
-23 -345 0
-318 344 -346 0
318 -344 -346 0
346 -344 -318 0
346 344 318 0
-24 346 0
-100 347 0
-101 347 0
-102 347 0
-103 347 0
-318 347 0
-336 347 0
348 0
344 -347 -349 0
-344 347 -349 0
-344 -347 349 0
344 347 349 0
-25 349 0
100 350 0
101 350 0
102 350 0
103 350 0
318 350 0
336 350 0
-351 0
-344 350 -352 0
344 -350 -352 0
352 -350 -344 0
344 350 352 0
-26 -352 0
353 -16 -354 0
16 -353 -354 0
-353 -16 354 0
16 353 354 0
-23 -354 0
16 -355 -356 0
355 -16 -356 0
356 -16 -355 0
356 16 355 0
-24 356 0
-353 357 0
-355 357 0
-358 357 0
-359 357 0
-360 357 0
-361 357 0
-362 357 0
-363 357 0
364 0
16 -357 -365 0
-16 357 -365 0
-16 -357 365 0
16 357 365 0
-25 365 0
353 366 0
355 366 0
358 366 0
359 366 0
360 366 0
361 366 0
362 366 0
363 366 0
-367 0
-16 366 -368 0
16 -366 -368 0
368 -366 -16 0
16 366 368 0
-26 -368 0
355 -369 -370 0
369 -355 -370 0
-355 -369 370 0
355 369 370 0
-23 -370 0
369 -358 -371 0
358 -369 -371 0
371 -369 -358 0
371 369 358 0
-24 371 0
-355 372 0
-358 372 0
-359 372 0
-360 372 0
-361 372 0
-362 372 0
-363 372 0
373 0
369 -372 -374 0
-369 372 -374 0
-369 -372 374 0
369 372 374 0
-25 374 0
355 375 0
358 375 0
359 375 0
360 375 0
361 375 0
362 375 0
363 375 0
-376 0
-369 375 -377 0
369 -375 -377 0
377 -375 -369 0
369 375 377 0
-26 -377 0
358 -378 -379 0
378 -358 -379 0
-358 -378 379 0
358 378 379 0
-23 -379 0
378 -359 -380 0
359 -378 -380 0
380 -378 -359 0
380 378 359 0
-24 380 0
-358 381 0
-359 381 0
-360 381 0
-361 381 0
-362 381 0
-363 381 0
382 0
378 -381 -383 0
-378 381 -383 0
-378 -381 383 0
378 381 383 0
-25 383 0
358 384 0
359 384 0
360 384 0
361 384 0
362 384 0
363 384 0
-385 0
-378 384 -386 0
378 -384 -386 0
386 -384 -378 0
378 384 386 0
-26 -386 0
359 -387 -388 0
387 -359 -388 0
-359 -387 388 0
359 387 388 0
-23 -388 0
387 -360 -389 0
360 -387 -389 0
389 -387 -360 0
389 387 360 0
-24 389 0
-359 390 0
-360 390 0
-361 390 0
-362 390 0
-363 390 0
359 360 361 362 363 -390 0
387 -390 -391 0
-387 390 -391 0
-387 -390 391 0
387 390 391 0
-25 391 0
359 392 0
360 392 0
361 392 0
362 392 0
363 392 0
-393 0
-387 392 -394 0
387 -392 -394 0
394 -392 -387 0
387 392 394 0
-26 -394 0
360 -395 -396 0
395 -360 -396 0
-360 -395 396 0
360 395 396 0
-23 -396 0
395 -361 -397 0
361 -395 -397 0
397 -395 -361 0
397 395 361 0
-24 397 0
-360 398 0
-361 398 0
-362 398 0
-363 398 0
360 361 362 363 -398 0
395 -398 -399 0
-395 398 -399 0
-395 -398 399 0
395 398 399 0
-25 399 0
360 400 0
361 400 0
362 400 0
363 400 0
-401 0
-395 400 -402 0
395 -400 -402 0
402 -400 -395 0
395 400 402 0
-26 -402 0
361 -403 -404 0
403 -361 -404 0
-361 -403 404 0
361 403 404 0
-23 -404 0
403 -362 -405 0
362 -403 -405 0
405 -403 -362 0
405 403 362 0
-24 405 0
403 -398 -406 0
-403 398 -406 0
-403 -398 406 0
403 398 406 0
-25 406 0
-403 400 -407 0
403 -400 -407 0
407 -400 -403 0
403 400 407 0
-26 -407 0
362 -408 -409 0
408 -362 -409 0
-362 -408 409 0
362 408 409 0
-23 -409 0
408 -363 -410 0
363 -408 -410 0
410 -408 -363 0
410 408 363 0
-24 410 0
408 -398 -411 0
-408 398 -411 0
-408 -398 411 0
408 398 411 0
-25 411 0
-408 400 -412 0
408 -400 -412 0
412 -400 -408 0
408 400 412 0
-26 -412 0
363 -413 -414 0
413 -363 -414 0
-363 -413 414 0
363 413 414 0
-23 -414 0
-360 413 -415 0
360 -413 -415 0
415 -413 -360 0
415 413 360 0
-24 415 0
413 -398 -416 0
-413 398 -416 0
-413 -398 416 0
413 398 416 0
-25 416 0
-413 400 -417 0
413 -400 -417 0
417 -400 -413 0
413 400 417 0
-26 -417 0
418 -17 -419 0
17 -418 -419 0
-418 -17 419 0
17 418 419 0
-23 -419 0
17 -420 -421 0
420 -17 -421 0
421 -17 -420 0
421 17 420 0
-24 421 0
-418 422 0
-420 422 0
-423 422 0
-424 422 0
-425 422 0
-426 422 0
427 0
17 -422 -428 0
-17 422 -428 0
-17 -422 428 0
17 422 428 0
-25 428 0
418 429 0
420 429 0
423 429 0
424 429 0
425 429 0
426 429 0
-430 0
-17 429 -431 0
17 -429 -431 0
431 -429 -17 0
17 429 431 0
-26 -431 0
420 -18 -432 0
18 -420 -432 0
-420 -18 432 0
420 18 432 0
-23 -432 0
18 -423 -433 0
423 -18 -433 0
433 -18 -423 0
433 18 423 0
-24 433 0
-420 434 0
-423 434 0
-424 434 0
-425 434 0
-426 434 0
420 423 424 425 426 -434 0
18 -434 -435 0
-18 434 -435 0
-18 -434 435 0
18 434 435 0
-25 435 0
420 436 0
423 436 0
424 436 0
425 436 0
426 436 0
-437 0
-18 436 -438 0
18 -436 -438 0
438 -436 -18 0
18 436 438 0
-26 -438 0
423 -19 -439 0
19 -423 -439 0
-423 -19 439 0
423 19 439 0
-23 -439 0
19 -424 -440 0
424 -19 -440 0
440 -19 -424 0
440 19 424 0
-24 440 0
19 -434 -441 0
-19 434 -441 0
-19 -434 441 0
19 434 441 0
-25 441 0
-19 436 -442 0
19 -436 -442 0
442 -436 -19 0
19 436 442 0
-26 -442 0
424 -443 -444 0
443 -424 -444 0
-424 -443 444 0
424 443 444 0
-23 -444 0
443 -425 -445 0
425 -443 -445 0
445 -443 -425 0
445 443 425 0
-24 445 0
443 -434 -446 0
-443 434 -446 0
-443 -434 446 0
443 434 446 0
-25 446 0
-443 436 -447 0
443 -436 -447 0
447 -436 -443 0
443 436 447 0
-26 -447 0
425 -448 -449 0
448 -425 -449 0
-425 -448 449 0
425 448 449 0
-23 -449 0
448 -426 -450 0
426 -448 -450 0
450 -448 -426 0
450 448 426 0
-24 450 0
448 -434 -451 0
-448 434 -451 0
-448 -434 451 0
448 434 451 0
-25 451 0
-448 436 -452 0
448 -436 -452 0
452 -436 -448 0
448 436 452 0
-26 -452 0
426 -453 -454 0
453 -426 -454 0
-426 -453 454 0
426 453 454 0
-23 -454 0
-420 453 -455 0
420 -453 -455 0
455 -453 -420 0
455 453 420 0
-24 455 0
453 -434 -456 0
-453 434 -456 0
-453 -434 456 0
453 434 456 0
-25 456 0
-453 436 -457 0
453 -436 -457 0
457 -436 -453 0
453 436 457 0
-26 -457 0
458 -20 -459 0
20 -458 -459 0
-458 -20 459 0
20 458 459 0
-23 -459 0
20 -460 -461 0
460 -20 -461 0
461 -20 -460 0
461 20 460 0
-24 461 0
-45 462 0
-46 462 0
-47 462 0
-48 462 0
-49 462 0
-458 462 0
-460 462 0
463 0
20 -462 -464 0
-20 462 -464 0
-20 -462 464 0
20 462 464 0
-25 464 0
45 465 0
46 465 0
47 465 0
48 465 0
49 465 0
458 465 0
460 465 0
-466 0
-20 465 -467 0
20 -465 -467 0
467 -465 -20 0
20 465 467 0
-26 -467 0
460 -468 -469 0
468 -460 -469 0
-460 -468 469 0
460 468 469 0
-23 -469 0
-45 468 -470 0
45 -468 -470 0
470 -468 -45 0
470 468 45 0
-24 470 0
-45 471 0
-46 471 0
-47 471 0
-48 471 0
-49 471 0
-460 471 0
45 46 47 48 49 460 -471 0
468 -471 -472 0
-468 471 -472 0
-468 -471 472 0
468 471 472 0
-25 472 0
45 473 0
46 473 0
47 473 0
48 473 0
49 473 0
460 473 0
-474 0
-468 473 -475 0
468 -473 -475 0
475 -473 -468 0
468 473 475 0
-26 -475 0
476 -21 -477 0
21 -476 -477 0
-476 -21 477 0
21 476 477 0
-23 -477 0
21 -478 -479 0
478 -21 -479 0
479 -21 -478 0
479 21 478 0
-24 479 0
-150 480 0
-153 480 0
-476 480 0
-478 480 0
-481 480 0
150 153 476 478 481 -480 0
21 -480 -482 0
-21 480 -482 0
-21 -480 482 0
21 480 482 0
-25 482 0
150 483 0
153 483 0
476 483 0
478 483 0
481 483 0
-484 0
-21 483 -485 0
21 -483 -485 0
485 -483 -21 0
21 483 485 0
-26 -485 0
478 -486 -487 0
486 -478 -487 0
-478 -486 487 0
478 486 487 0
-23 -487 0
486 -481 -488 0
481 -486 -488 0
488 -486 -481 0
488 486 481 0
-24 488 0
-150 489 0
-153 489 0
-478 489 0
-481 489 0
150 153 478 481 -489 0
486 -489 -490 0
-486 489 -490 0
-486 -489 490 0
486 489 490 0
-25 490 0
150 491 0
153 491 0
478 491 0
481 491 0
-492 0
-486 491 -493 0
486 -491 -493 0
493 -491 -486 0
486 491 493 0
-26 -493 0
481 -494 -495 0
494 -481 -495 0
-481 -494 495 0
481 494 495 0
-23 -495 0
-150 494 -496 0
150 -494 -496 0
496 -494 -150 0
496 494 150 0
-24 496 0
-150 497 0
-153 497 0
-481 497 0
150 153 481 -497 0
494 -497 -498 0
-494 497 -498 0
-494 -497 498 0
494 497 498 0
-25 498 0
150 499 0
153 499 0
481 499 0
-150 -153 -481 -499 0
-494 499 -500 0
494 -499 -500 0
500 -499 -494 0
494 499 500 0
-26 -500 0
501 -22 -502 0
22 -501 -502 0
-501 -22 502 0
22 501 502 0
-23 -502 0
22 -503 -504 0
503 -22 -504 0
504 -22 -503 0
504 22 503 0
-24 504 0
-420 505 0
-423 505 0
-424 505 0
-425 505 0
-426 505 0
-501 505 0
-503 505 0
506 0
22 -505 -507 0
-22 505 -507 0
-22 -505 507 0
22 505 507 0
-25 507 0
420 508 0
423 508 0
424 508 0
425 508 0
426 508 0
501 508 0
503 508 0
-509 0
-22 508 -510 0
22 -508 -510 0
510 -508 -22 0
22 508 510 0
-26 -510 0
503 -511 -512 0
511 -503 -512 0
-503 -511 512 0
503 511 512 0
-23 -512 0
-423 511 -513 0
423 -511 -513 0
513 -511 -423 0
513 511 423 0
-24 513 0
-420 514 0
-423 514 0
-424 514 0
-425 514 0
-426 514 0
-503 514 0
515 0
511 -514 -516 0
-511 514 -516 0
-511 -514 516 0
511 514 516 0
-25 516 0
420 517 0
423 517 0
424 517 0
425 517 0
426 517 0
503 517 0
-518 0
-511 517 -519 0
511 -517 -519 0
519 -517 -511 0
511 517 519 0
-26 -519 0
27 0
-29 0
-40 0
-42 0
45 0
-46 0
47 0
-48 0
-49 0
94 0
96 0
-99 0
100 0
101 0
-102 0
103 0
148 0
150 0
-153 0
165 0
-167 0
-170 0
-171 0
172 0
-202 0
-204 0
-207 0
208 0
-235 0
-237 0
-240 0
241 0
272 0
-274 0
-277 0
297 0
-299 0
302 0
316 0
318 0
334 0
-336 0
-353 0
-355 0
-358 0
359 0
360 0
361 0
-362 0
-363 0
418 0
420 0
-423 0
-424 0
425 0
426 0
458 0
460 0
476 0
-478 0
-481 0
501 0
-503 0
